5 5
8 5 2 7 4 5 3 11 5 15 1 6 3 5 12 4 12 1 15 1 4 15 3 1 9 5 6 3 5 5 4 9 2 9 5 11 3 15 1 12 5 4 15 3 9 1 18 2 4 5 11 5 2 10 5 3 3 6 1 18 4 9 3 4 4 2 8 1 9
4 2 4 16 2 12 1 4 5 1 4 3 1 5 16
5 1 4 18 1 1 16 2 5 3 2 19 4 4 12 2 11 5 15 3 18 3 3 18 4 17 5 13
6 5 4 10 2 5 1 13 5 4 3 4 2 2 7 1 7 2 3 15 4 7 4 5 3 2 15 1 15 4 6 2 4 8 5 2 3 3 18 1 16 4 10
7 1 5 5 2 2 14 5 18 3 5 10 2 2 3 15 2 1 19 5 7 5 4 2 3 5 1 5 5 15 2 16 2 5 17 3 9 1 5 12